c --- [ banner ] -------------------------------------------------------------
c 
c CaDiCaL Radically Simplified CDCL SAT Solver
c Copyright (c) 2016-2021 A. Biere, M. Fleury, N. Froleyks
c 
c Version 1.5.2 a5f15211db36c3956764e18194dd5bd63bf3b5e6
c g++ (GCC) 9.3.0 -Wall -Wextra -O3 -DNDEBUG
c Fri Oct 21 01:27:37 EDT 2022 Linux gra-login3 3.10.0-1160.66.1.el7.x86_64 x86_64
c 
c --- [ limit ] --------------------------------------------------------------
c 
c setting conflict limit to 200000 conflicts (due to '200000')
c 
c --- [ parsing input ] ------------------------------------------------------
c 
c reading DIMACS file from '33.cubes1260.adj'
c opening file to read '33.cubes1260.adj'
c found 'p cnf 6160 1595472' header
c parsed 1595472 clauses in 20.08 seconds process time
c closing file '33.cubes1260.adj'
c after reading 1457566755 bytes 1390.0 MB
c 
c --- [ options ] ------------------------------------------------------------
c 
c all options are set to their default value
c 
c --- [ solving ] ------------------------------------------------------------
c 
c time measured in process time since initialization
c 
c  seconds    reductions  redundant   irredundant
c          MB     restarts       trail       variables
c            level   conflicts       glue         remaining
c 
c * 20.08 1366  0 0   0    0    0  0% 0 1595422 2424 39%
c { 20.94 1408  0 0   0    0    0  0% 0 1595422 2424 39%
c i 21.02 1410 103 0   0    3    1 15% 0 1595422 2384 39%
c i 21.66 1439 982 0   0   17   12 33% 1 1595422 2376 39%
c i 23.53 1478 454 0   7   51   39 27% 11 1595422 2346 38%
c i 25.18 1493 297 0  18   92   76 27% 22 1595422 2342 38%
c i 25.19 1493 294 0  18   93   76 27% 22 1595422 2341 38%
c i 25.21 1493 286 0  19   96   78 27% 22 1595422 2340 38%
c i 25.44 1494 265 0  22  112   88 27% 25 1595422 2339 38%
c i 25.44 1494 260 0  22  114   89 27% 25 1595422 2338 38%
c i 25.45 1494 258 0  23  115   89 27% 25 1595422 2337 38%
c i 25.75 1495 227 0  27  134  107 27% 25 1595422 2336 38%
c i 25.81 1496 221 0  27  139  108 27% 24 1595422 2332 38%
c i 26.25 1499 201 0  31  162  130 28% 28 1595422 2331 38%
c i 26.32 1499 197 0  33  166  133 28% 28 1595422 2330 38%
c i 26.32 1499 195 0  33  167  133 28% 28 1595422 2329 38%
c i 26.32 1499 194 0  33  168  133 28% 28 1595422 2328 38%
c i 26.33 1499 192 0  34  170  134 28% 27 1595422 2327 38%
c i 26.57 1499 189 0  35  183  142 27% 28 1595422 2325 38%
c i 26.77 1499 185 0  37  190  148 27% 28 1595422 2324 38%
c 
c  seconds     reductions  redundant    irredundant
c          MB      restarts       trail        variables
c             level   conflicts       glue          remaining
c 
c i 27.13 1501 175 0  42  209  166 27% 30 1595422 2323 38%
c i 27.35 1502 169 0  45  218  172 27% 30 1595422 2321 38%
c i 27.67 1503 156 0  50  247  196 27% 30 1595422 2320 38%
c i 27.76 1503 156 0  51  249  197 27% 30 1595422 2319 38%
c i 28.20 1504 153 0  54  270  215 27% 32 1595422 2318 38%
c - 33.02 1495 143 1  62  300  244 27% 31 379388 2318 38%
c i 33.17 1443 142 1  62  302  245 27% 31 379388 2317 38%
c i 33.38 1443 130 1  62  338  278 27% 30 379388 2316 38%
c i 33.39 1443 129 1  62  339  278 27% 30 379388 2315 38%
c i 33.40 1443 128 1  62  344  282 27% 30 379388 2314 38%
c i 33.48 1443 121 1  62  368  298 27% 30 379388 2313 38%
c i 33.49 1443 121 1  62  372  301 27% 30 379388 2312 38%
c i 34.46 1444 120 1  73  440  362 27% 31 379388 2311 38%
c i 34.46 1444 119 1  73  441  362 27% 31 379388 2310 38%
c i 34.87 1444 118 1  75  478  389 27% 32 379388 2309 37%
c i 34.89 1444 117 1  76  480  390 27% 32 379388 2308 37%
c i 35.24 1444 116 1  82  502  411 27% 32 379388 2268 37%
c i 35.37 1444 115 1  82  507  414 27% 31 379388 2267 37%
c i 35.66 1444 113 1  85  535  438 27% 32 379388 2266 37%
c i 35.76 1444 113 1  86  542  441 27% 31 379388 2262 37%
c 
c  seconds     reductions  redundant   irredundant
c          MB      restarts       trail       variables
c             level   conflicts       glue         remaining
c 
c i 36.02 1444 110 1  89  581  478 27% 32 379388 2261 37%
c i 36.04 1444 109 1  89  585  481 27% 32 379388 2260 37%
c i 36.14 1444 106 1  89  614  508 27% 31 379388 2259 37%
c i 36.16 1444 106 1  89  617  510 27% 31 379388 2258 37%
c i 36.20 1444 105 1  89  625  516 27% 31 379388 2257 37%
c i 36.24 1444 105 1  89  627  517 27% 31 379388 2256 37%
c i 36.38 1444 104 1  90  659  547 27% 31 379388 2241 36%
c i 36.52 1444 104 1  91  664  551 27% 31 379388 2240 36%
c i 36.54 1444 104 1  91  665  551 27% 31 379388 2239 36%
c i 36.57 1445 103 1  91  676  560 27% 31 379388 2238 36%
c i 36.62 1445 104 1  91  687  569 27% 32 379388 2236 36%
c i 36.69 1445 103 1  93  694  574 27% 32 379388 2235 36%
c i 36.69 1445 103 1  93  696  575 27% 31 379388 2234 36%
c i 36.70 1445 103 1  94  701  579 27% 31 379388 2233 36%
c i 36.71 1445 103 1  94  702  579 27% 31 379388 2232 36%
c i 36.78 1445 103 1  94  717  591 27% 31 379388 2230 36%
c i 36.80 1445 103 1  94  719  592 27% 31 379388 2229 36%
c i 36.97 1445 104 1  97  747  613 27% 32 379388 2227 36%
c i 37.09 1445 103 1 102  766  629 27% 32 379388 2226 36%
c i 37.09 1445 103 1 103  767  629 27% 32 379388 2225 36%
c 
c  seconds     reductions  redundant   irredundant
c          MB      restarts       trail       variables
c             level   conflicts       glue         remaining
c 
c i 37.48 1445 101 1 114  832  684 27% 32 379388 2224 36%
c i 37.49 1445 101 1 114  847  692 27% 33 379388 2223 36%
c i 37.58 1445 101 1 114  869  709 27% 33 379388 2222 36%
c i 37.67 1445 99 1 117  898  733 27% 33 379388 2221 36%
c i 37.72 1445 99 1 119  913  745 27% 33 379388 2220 36%
c i 37.73 1445 98 1 121  919  748 27% 33 379388 2219 36%
c i 37.82 1445 95 1 122  987  808 27% 33 379388 2218 36%
c } 37.83 1445 94 1 122 1000  819 27% 33 379388 2218 36%
c [ 37.83 1445  0 1 122 1000  819  0% 0 379388 2218 36%
c O 37.85 1445 25 1 122 1002  821 21% 4 379388 2218 36%
c i 37.93 1445 16 1 122 1009  826 29% 8 379388 2217 36%
c i 37.98 1445 20 1 122 1027  843 29% 15 379388 2216 36%
c i 37.98 1445 20 1 122 1031  846 29% 16 379388 2215 36%
c i 38.01 1445 20 1 122 1049  860 30% 17 379388 2214 36%
c i 38.09 1445 20 1 122 1097  897 30% 17 379388 2213 36%
c i 38.16 1445 22 1 122 1149  934 30% 19 379388 2212 36%
c i 38.18 1445 22 1 122 1160  939 30% 18 379388 2211 36%
c i 38.19 1445 22 1 122 1169  945 30% 18 379388 2210 36%
c i 38.22 1445 21 1 122 1191  959 29% 18 379388 2209 36%
c i 38.25 1445 22 1 122 1213  979 30% 18 379388 2208 36%
c 
c  seconds    reductions  redundant   irredundant
c          MB     restarts       trail       variables
c            level   conflicts       glue         remaining
c 
c i 38.26 1445 23 1 122 1230  994 29% 19 379388 2207 36%
c i 38.26 1445 23 1 122 1234  997 29% 19 379388 2206 36%
c - 39.06 1586 23 2 122 1250  887 29% 19 378265 2206 36%
c i 39.11 1586 23 2 122 1251  887 29% 19 378265 2205 36%
c i 39.14 1586 23 2 122 1264  896 29% 19 378265 2204 36%
c i 39.42 1586 23 2 122 1382  974 30% 20 378265 2203 36%
c i 39.48 1586 23 2 122 1436 1006 30% 20 378265 2202 36%
c i 39.55 1586 22 2 122 1602 1108 30% 19 378265 2201 36%
c i 39.58 1586 22 2 122 1655 1127 30% 19 378265 2200 36%
c i 39.61 1586 22 2 122 1722 1166 30% 19 378265 2199 36%
c i 39.70 1586 21 2 122 2015 1313 30% 18 378265 2198 36%
c i 39.72 1586 20 2 123 2066 1333 30% 18 378265 2197 36%
c i 39.80 1586 19 2 123 2286 1415 30% 17 378265 2196 36%
c i 39.82 1586 18 2 123 2384 1448 30% 16 378265 2195 36%
c i 39.82 1586 18 2 123 2393 1445 30% 16 378265 2194 36%
c - 40.43 1582 18 3 123 2672 1146 30% 16 378229 2194 36%
c ] 41.07 1582 17 3 123 3000 1302 47% 15 378229 2194 36%
c { 41.07 1582 94 3 123 3000 1302 77% 33 378229 2194 36%
c F 41.09 1582 94 3 124 3003 1305 77% 33 378229 2194 36%
c i 41.30 1582 93 3 124 3015 1314 76% 33 378229 2193 36%
c 
c  seconds    reductions  redundant   irredundant
c          MB     restarts       trail       variables
c            level   conflicts       glue         remaining
c 
c i 41.42 1582 92 3 124 3026 1324 76% 33 378229 2192 36%
c i 41.51 1582 92 3 124 3053 1348 75% 33 378229 2191 36%
c i 41.65 1582 90 3 124 3090 1379 74% 32 378229 2190 36%
c i 41.69 1582 89 3 124 3111 1395 73% 32 378229 2189 36%
c i 41.70 1582 89 3 124 3125 1407 73% 32 378229 2188 36%
c i 41.71 1582 88 3 124 3139 1418 73% 32 378229 2187 36%
c i 41.76 1582 87 3 124 3156 1432 72% 32 378229 2186 35%
c i 41.87 1582 87 3 124 3175 1449 72% 32 378229 2185 35%
c i 41.90 1582 87 3 124 3193 1458 71% 32 378229 2184 35%
c i 42.09 1582 86 3 124 3229 1487 70% 31 378229 2183 35%
c i 42.09 1582 85 3 124 3230 1487 70% 31 378229 2182 35%
c i 42.09 1582 85 3 124 3231 1487 70% 31 378229 2181 35%
c i 42.12 1582 85 3 124 3237 1491 70% 31 378229 2180 35%
c i 42.13 1582 85 3 124 3239 1492 70% 31 378229 2179 35%
c i 42.27 1582 84 3 124 3287 1527 69% 32 378229 2178 35%
c i 42.28 1582 83 3 124 3296 1530 69% 31 378229 2177 35%
c i 42.31 1582 83 3 124 3313 1544 69% 31 378229 2176 35%
c i 42.32 1582 83 3 124 3314 1544 69% 31 378229 2175 35%
c i 42.32 1582 83 3 124 3316 1545 69% 31 378229 2174 35%
c i 42.49 1582 81 3 124 3380 1598 68% 31 378229 2173 35%
c 
c  seconds    reductions  redundant   irredundant
c          MB     restarts       trail       variables
c            level   conflicts       glue         remaining
c 
c i 42.59 1582 80 3 124 3405 1621 67% 31 378229 2172 35%
c i 42.94 1582 75 3 124 3590 1767 65% 31 378229 2171 35%
c i 42.96 1582 75 3 124 3593 1767 65% 31 378229 2170 35%
c i 42.96 1582 75 3 124 3594 1767 65% 31 378229 2169 35%
c i 43.05 1582 74 3 124 3633 1797 64% 30 378229 2168 35%
c i 43.10 1582 73 3 124 3655 1813 64% 30 378229 2167 35%
c i 43.26 1582 71 3 124 3750 1887 63% 30 378229 2166 35%
c i 43.49 1582 68 3 124 3875 1969 62% 30 378229 2165 35%
c i 44.40 1582 62 3 136 4293 2285 59% 29 378229 2164 35%
c i 44.49 1582 61 3 136 4327 2316 58% 29 378229 2163 35%
c - 45.13 1574 57 4 136 4567 1912 57% 27 378136 2163 35%
c i 45.67 1573 55 4 136 4791 2079 56% 27 378136 2162 35%
c } 45.90 1573 53 4 136 4988 2229 56% 27 378136 2162 35%
c 1 45.90 1573 53 4 136 4988 2229 56% 27 378136 2162 35%
c 
c --- [ writing output ] -----------------------------------------------------
c 
c writing simplified CNF to DIMACS file 'simp/33.cubes1260.adj.simp1'
c * 45.90 1573 53 4 136 4988 2229 56% 27 378136 2162 35%
c opening file to write 'simp/33.cubes1260.adj.simp1'
c writing 'p cnf 6160 378133' header
c closing file 'simp/33.cubes1260.adj.simp1'
c after writing 145179283 bytes 138.5 MB
c wrote 378133 clauses in 1.06 seconds process time
c 
c --- [ writing extension ] --------------------------------------------------
c 
c writing extension stack to 'simp/33.cubes1260.adj.ext1'
c opening file to write 'simp/33.cubes1260.adj.ext1'
c closing file 'simp/33.cubes1260.adj.ext1'
c after writing 12680 bytes 0.0 MB
c wrote 854 witnesses in 0.00 seconds process time
c 
c --- [ result ] -------------------------------------------------------------
c 
s SATISFIABLE
c 
c --- [ run-time profiling ] -------------------------------------------------
c 
c process time taken by individual solving procedures
c (percentage relative to process time for solving)
c 
c        25.82  100.00% search
c        21.73   84.15% unstable
c        20.08   77.77% parse
c         3.24   12.53% stable
c         0.86    3.31% lucky
c         0.00    0.00% simplify
c   =================================
c        25.82   54.98% solve
c 
c last line shows process time for solving
c (percentage relative to total process time)
c 
c --- [ statistics ] ---------------------------------------------------------
c 
c chronological:              1259        25.24 %  of conflicts
c conflicts:                  4988       193.18    per second
c decisions:                 25241       977.57    per second
c fixed:                       854        13.86 %  of all variables
c learned:                    4868        97.59 %  per conflict
c learned_lits:             764254       100.00 %  learned literals
c minimized:                     0         0.00 %  learned literals
c shrunken:                 522963        68.43 %  learned literals
c minishrunken:              39209         5.13 %  learned literals
c propagations:             827111         0.03 M  per second
c reduced:                    1136        22.77 %  per conflict
c rephased:                      2      2494.00    interval
c restarts:                    136        36.68    interval
c stabilizing:                   1        40.10 %  of conflicts
c subsumed:                   1326         0.04 %  of all clauses
c 
c seconds are measured in process time for solving
c 
c --- [ resources ] ----------------------------------------------------------
c 
c total process time since initialization:        46.96    seconds
c total real time since initialization:           48.82    seconds
c maximum resident set size of process:         1721.85    MB
c 
c --- [ shutting down ] ------------------------------------------------------
c 
c exit 10
WARNING! DIMACS header mismatch: wrong number of variables.
============================[ Problem Statistics ]=============================
|                                                                             |
|  Number of variables:          6120                                         |
|  Number of clauses:          378133                                         |
|  Parse time:                   1.91 s                                       |
|  Simplification time:          0.05 s                                       |
|                                                                             |
============================[ Search Statistics ]====================================================
| Conflicts |          ORIGINAL         |          LEARNT          | Num Sols |      SUBGRAPHS      |
|           |    Vars  Clauses Literals |    Limit  Clauses Lit/Cl |          | Canonical Noncanon. |
=====================================================================================================
|       101 |    6021   378134 31744270 |     2000      100    107 |        0 |        16         1 |
|       253 |    6020   378136 31744293 |     2000      251    106 |        0 |        23         3 |
|       480 |    6019   378138 31744358 |     2000      477    100 |        0 |        28         5 |
|       817 |    6015   378138 31744358 |     2000      810     99 |        0 |        43         5 |
|      1334 |    6015   378149 31744580 |     2000     1327     92 |        0 |        52        16 |
|      5956 |    6007   382012 31808552 |     4999     3155     15 |        0 |      1140      3879 |
|     19248 |    5993   394165 31968301 |     8786     7033     11 |        0 |      2221     16032 |
|     39583 |    5992   412792 32217662 |    12408    12390     11 |        0 |      3751     34659 |
|     74538 |    5991   445185 32601003 |    18410    10348      8 |        0 |      4103     67052 |
=====================================================================================================
Number of solutions   : 0
Canonical subgraphs   : 4338           (28 /sec)
          order  3    : 1              (200000 /sec)
          order  4    : 1              (500000 /sec)
          order  5    : 1              (200000 /sec)
          order  6    : 1              (58824 /sec)
          order  7    : 1              (9009 /sec)
          order  8    : 2              (1365 /sec)
          order  9    : 6              (315 /sec)
          order 10    : 13             (61 /sec)
          order 11    : 57             (18 /sec)
          order 12    : 234            (18 /sec)
          order 13    : 4021           (29 /sec)
          order 14    : 0              (-nan /sec)
          order 15    : 0              (-nan /sec)
          order 16    : 0              (-nan /sec)
          order 17    : 0              (-nan /sec)
          order 18    : 0              (-nan /sec)
          order 19    : 0              (-nan /sec)
          order 20    : 0              (-nan /sec)
          order 21    : 0              (-nan /sec)
          order 22    : 0              (-nan /sec)
Noncanonical subgraphs: 80867          (194 /sec)
          order  3    : 0              (-nan /sec)
          order  4    : 0              (-nan /sec)
          order  5    : 0              (-nan /sec)
          order  6    : 0              (-nan /sec)
          order  7    : 0              (-nan /sec)
          order  8    : 0              (-nan /sec)
          order  9    : 0              (-nan /sec)
          order 10    : 0              (-nan /sec)
          order 11    : 0              (-nan /sec)
          order 12    : 0              (-nan /sec)
          order 13    : 3163           (674 /sec)
          order 14    : 77704          (188 /sec)
          order 15    : 0              (-nan /sec)
          order 16    : 0              (-nan /sec)
          order 17    : 0              (-nan /sec)
          order 18    : 0              (-nan /sec)
          order 19    : 0              (-nan /sec)
          order 20    : 0              (-nan /sec)
          order 21    : 0              (-nan /sec)
Canonicity checking   : 153.769 s
Noncanonicity checking: 417.436 s
Total canonicity time : 571.204 s
database reductions   : 14
restarts              : 254
conflicts             : 89446          (144 /sec)
decisions             : 185793         (0.00 % random) (300 /sec)
propagations          : 7971386        (12866 /sec)
conflict literals     : 1190079        (59.65 % deleted)
actual reward         : 0.043970
Memory used           : 242.00 MB
CPU time              : 619.583 s

UNSATISFIABLE
